4 
5  10 23 47 
6  03 18 32 47 
7  04 19 34 49 
8  04 19 34 49 
9  04 19 34 49 
10  06 21 36 51 
11  06 21 36 51 
12  06 21 36 51 
13  06 22 37 52 
14  07 22 37 52 
15  06 20 35 50 
16  05 20 35 50 
17  05 20 35 50 
18  05 20 35 50 
19  06 20 35 50 
20  05 20 35 50 
21  05 20 35 
22  05 
23  
0 
